3 
4  50 
5  13 28 43 58 
6  13 28 43 58 
7  13 28 43 58 
8  13 28 43 58 
9  13 28 43 58 
10  13 28 43 58 
11  13 28 43 58 
12  13 28 43 58 
13  13 28 43 58 
14  13 28 43 58 
15  13 28 43 58 
16  13 28 43 58 
17  13 28 43 58 
18  13 28 43 58 
19  13 28 43 58 
20  13 28 43 58 
21  13 28 43 
22  04 19 34 49 
23 
0 
